
Starting CP-SAT solver v9.15.6755
Parameters: random_seed: 2026074172 max_time_in_seconds: 10409.999999093 log_search_progress: true cp_model_presolve: true linearization_level: 2 num_search_workers: 4 cp_model_probing_level: 2 symmetry_level: 2

Initial satisfaction model '': (model_fingerprint: 0x466b97d4846b7225)
#Variables: 724 (608 primary variables)
  - 724 Booleans in [0,1]
#kBoolAnd: 110 (#enforced: 110) (#literals: 330)
#kBoolOr: 110 (#enforced: 110) (#literals: 220)
#kExactlyOne: 87 (#literals: 261)
#kLinear1: 32 (#enforced: 6)
#kLinear2: 336 (#enforced: 336) (#complex_domain: 110)
#kLinear3: 1'600 (#enforced: 6)
#kLinearN: 1'132 (#enforced: 243) (#terms: 9'111)

Starting presolve at 0.00s
  7.17e-04s  0.00e+00d  [DetectDominanceRelations] 
  9.33e-03s  0.00e+00d  [PresolveToFixPoint] #num_loops=3 #num_dual_strengthening=1 
  5.21e-05s  0.00e+00d  [ExtractEncodingFromLinear] #potential_supersets=86 
  3.43e-04s  0.00e+00d  [DetectDuplicateColumns] 
  1.18e-04s  0.00e+00d  [DetectDuplicateConstraints] #duplicates=5 
[Symmetry] Graph for symmetry has 4'868 nodes and 15'696 arcs.
[Symmetry] Symmetry computation done. time: 0.00153019 dtime: 0.00214205
[SAT presolve] num removable Booleans: 220 / 626
[SAT presolve] num trivial clauses: 0
[SAT presolve] [0s] clauses:2'720 literals:7'400 vars:506 one_side_vars:66 simple_definition:1 singleton_clauses:0
[SAT presolve] [0.000232374s] clauses:2'719 literals:7'393 vars:506 one_side_vars:66 simple_definition:1 singleton_clauses:0
[SAT presolve] [0.000551441s] clauses:2'487 literals:7'058 vars:394 one_side_vars:66 simple_definition:2 singleton_clauses:0
  1.51e-04s  0.00e+00d  [DetectDuplicateConstraintsWithDifferentEnforcements] 
  6.49e-03s  3.37e-03d  [Probe] #probed=1'304 #fixed_bools=12 #equiv=9 #new_binary_clauses=1'010 
  7.61e-04s  5.73e-04d  [MaxClique] Merged 687 constraints with 1'506 literals into 608 constraints with 1'373 literals
  8.77e-04s  0.00e+00d  [DetectDominanceRelations] 
  3.29e-03s  0.00e+00d  [PresolveToFixPoint] #num_loops=1 #num_dual_strengthening=1 
  1.21e-03s  0.00e+00d  [ProcessAtMostOneAndLinear] 
  1.40e-04s  0.00e+00d  [DetectDuplicateConstraints] #duplicates=6 
  1.02e-04s  0.00e+00d  [DetectDuplicateConstraintsWithDifferentEnforcements] 
  2.82e-03s  9.44e-05d  [DetectDominatedLinearConstraints] #relevant_constraints=833 #num_inclusions=469 #num_redundant=6 
  1.36e-04s  0.00e+00d  [DetectDifferentVariables] 
  8.46e-04s  8.93e-05d  [ProcessSetPPC] #relevant_constraints=3'233 #num_inclusions=286 
  3.31e-04s  3.53e-05d  [TransformClausesToExactlyOne] #num_amos=610 #num_clauses=1'806 #num_transformed=1 #num_checked=1'806 
  4.65e-05s  0.00e+00d  [DetectEncodedComplexDomains] 
  3.97e-05s  0.00e+00d  [FindAlmostIdenticalLinearConstraints] 
  9.84e-04s  1.43e-03d  [FindBigAtMostOneAndLinearOverlap] 
  1.44e-03s  1.11e-03d  [FindBigVerticalLinearOverlap] #blocks=4 #saved_nz=160 
  3.51e-04s  5.92e-04d  [FindBigHorizontalLinearOverlap] #linears=454 
  3.67e-04s  2.82e-05d  [MergeClauses] #num_collisions=4 #num_merges=4 #num_saved_literals=8 
  6.57e-04s  0.00e+00d  [DetectDominanceRelations] 
  3.17e-03s  0.00e+00d  [PresolveToFixPoint] #num_loops=2 #num_dual_strengthening=1 
  6.42e-04s  0.00e+00d  [DetectDominanceRelations] 
  2.93e-03s  0.00e+00d  [PresolveToFixPoint] #num_loops=1 #num_dual_strengthening=1 
  1.77e-04s  0.00e+00d  [DetectDuplicateColumns] 
  1.09e-04s  0.00e+00d  [DetectDuplicateConstraints] 
[Symmetry] Graph for symmetry has 4'651 nodes and 14'372 arcs.
[Symmetry] Symmetry computation done. time: 0.00119472 dtime: 0.00160804
[SAT presolve] num removable Booleans: 106 / 505
[SAT presolve] num trivial clauses: 0
[SAT presolve] [0s] clauses:2'414 literals:6'895 vars:479 one_side_vars:142 simple_definition:24 singleton_clauses:0
[SAT presolve] [0.000249948s] clauses:2'410 literals:6'731 vars:479 one_side_vars:147 simple_definition:86 singleton_clauses:0
[SAT presolve] [0.000407472s] clauses:2'202 literals:6'266 vars:472 one_side_vars:181 simple_definition:71 singleton_clauses:0
  2.25e-04s  0.00e+00d  [DetectDuplicateConstraintsWithDifferentEnforcements] #without_enforcements=3 
  6.39e-03s  2.03e-03d  [Probe] #probed=1'316 #new_binary_clauses=633 
  5.24e-04s  3.28e-04d  [MaxClique] Merged 506 constraints with 1'106 literals into 499 constraints with 1'103 literals
  9.41e-04s  0.00e+00d  [DetectDominanceRelations] 
  3.36e-03s  0.00e+00d  [PresolveToFixPoint] #num_loops=1 #num_dual_strengthening=1 
  1.18e-03s  0.00e+00d  [ProcessAtMostOneAndLinear] 
  1.49e-04s  0.00e+00d  [DetectDuplicateConstraints] 
  1.14e-04s  0.00e+00d  [DetectDuplicateConstraintsWithDifferentEnforcements] 
  1.71e-03s  7.07e-05d  [DetectDominatedLinearConstraints] #relevant_constraints=820 #num_inclusions=377 
  1.42e-04s  0.00e+00d  [DetectDifferentVariables] 
  7.98e-04s  7.56e-05d  [ProcessSetPPC] #relevant_constraints=3'107 #num_inclusions=118 
  3.15e-04s  3.32e-05d  [TransformClausesToExactlyOne] #num_amos=499 #num_clauses=1'735 #num_checked=1'735 
  1.77e-04s  0.00e+00d  [DetectEncodedComplexDomains] 
  4.85e-05s  0.00e+00d  [FindAlmostIdenticalLinearConstraints] 
  8.75e-04s  1.19e-03d  [FindBigAtMostOneAndLinearOverlap] 
  1.34e-03s  1.07e-03d  [FindBigVerticalLinearOverlap] 
  3.69e-04s  5.92e-04d  [FindBigHorizontalLinearOverlap] #linears=454 
  4.01e-04s  2.66e-05d  [MergeClauses] #num_collisions=72 #num_merges=72 #num_saved_literals=181 
  8.89e-04s  0.00e+00d  [DetectDominanceRelations] 
  3.19e-03s  0.00e+00d  [PresolveToFixPoint] #num_loops=1 #num_dual_strengthening=1 
  8.71e-04s  0.00e+00d  [DetectDominanceRelations] 
  3.15e-03s  0.00e+00d  [PresolveToFixPoint] #num_loops=1 #num_dual_strengthening=1 
  1.47e-04s  0.00e+00d  [DetectDuplicateColumns] 
  1.23e-04s  0.00e+00d  [DetectDuplicateConstraints] 
[Symmetry] Graph for symmetry has 4'371 nodes and 13'418 arcs.
[Symmetry] Symmetry computation done. time: 0.00107759 dtime: 0.00148527
[SAT presolve] num removable Booleans: 99 / 498
[SAT presolve] num trivial clauses: 0
[SAT presolve] [0s] clauses:2'186 literals:6'224 vars:472 one_side_vars:181 simple_definition:71 singleton_clauses:0
[SAT presolve] [0.000211155s] clauses:2'186 literals:6'224 vars:472 one_side_vars:181 simple_definition:71 singleton_clauses:0
[SAT presolve] [0.000275696s] clauses:2'186 literals:6'224 vars:472 one_side_vars:181 simple_definition:71 singleton_clauses:0
  2.23e-04s  0.00e+00d  [DetectDuplicateConstraintsWithDifferentEnforcements] 
  6.20e-03s  2.03e-03d  [Probe] #probed=1'316 #new_binary_clauses=633 
  6.07e-04s  3.23e-04d  [MaxClique] 
  9.19e-04s  0.00e+00d  [DetectDominanceRelations] 
  3.36e-03s  0.00e+00d  [PresolveToFixPoint] #num_loops=1 #num_dual_strengthening=1 
  1.17e-03s  0.00e+00d  [ProcessAtMostOneAndLinear] 
  1.63e-04s  0.00e+00d  [DetectDuplicateConstraints] 
  1.28e-04s  0.00e+00d  [DetectDuplicateConstraintsWithDifferentEnforcements] 
  1.73e-03s  7.07e-05d  [DetectDominatedLinearConstraints] #relevant_constraints=820 #num_inclusions=377 
  1.63e-04s  0.00e+00d  [DetectDifferentVariables] 
  7.88e-04s  7.55e-05d  [ProcessSetPPC] #relevant_constraints=3'104 #num_inclusions=115 
  3.34e-04s  3.32e-05d  [TransformClausesToExactlyOne] #num_amos=496 #num_clauses=1'735 #num_checked=1'735 
  1.70e-04s  0.00e+00d  [DetectEncodedComplexDomains] 
  6.40e-05s  0.00e+00d  [FindAlmostIdenticalLinearConstraints] 
  8.86e-04s  1.20e-03d  [FindBigAtMostOneAndLinearOverlap] 
  1.32e-03s  1.07e-03d  [FindBigVerticalLinearOverlap] 
  3.77e-04s  5.92e-04d  [FindBigHorizontalLinearOverlap] #linears=454 
  3.66e-04s  2.66e-05d  [MergeClauses] #num_collisions=72 #num_merges=72 #num_saved_literals=181 
  9.25e-04s  0.00e+00d  [DetectDominanceRelations] 
  3.26e-03s  0.00e+00d  [PresolveToFixPoint] #num_loops=1 #num_dual_strengthening=1 
  3.72e-05s  0.00e+00d  [MergeNoOverlap] 
  4.85e-05s  0.00e+00d  [MergeNoOverlap2D] 

Presolve summary:
  - 39 affine relations were detected.
  - rule 'TODO dual: only one blocking constraint?' was applied 838 times.
  - rule 'TODO linear inclusion: superset is equality' was applied 310 times.
  - rule 'affine: new relation' was applied 39 times.
  - rule 'at_most_one: removed literals' was applied 61 times.
  - rule 'at_most_one: size one' was applied 60 times.
  - rule 'at_most_one: transformed into max clique' was applied 2 times.
  - rule 'bool_or: implications' was applied 70 times.
  - rule 'bool_or: only one literal' was applied 12 times.
  - rule 'bool_or: removed enforcement literal' was applied 589 times.
  - rule 'clauses: transformed into exactly one' was applied 1 time.
  - rule 'deductions: 880 stored' was applied 1 time.
  - rule 'duplicate: merged rhs of linear constraint' was applied 10 times.
  - rule 'duplicate: removed constraint' was applied 11 times.
  - rule 'duplicate: removed enforced constraint' was applied 3 times.
  - rule 'enforcement: false literal' was applied 34 times.
  - rule 'enforcement: true literal' was applied 8 times.
  - rule 'exactly_one: removed literals' was applied 32 times.
  - rule 'exactly_one: satisfied' was applied 3 times.
  - rule 'exactly_one: singleton' was applied 2 times.
  - rule 'exactly_one: size two' was applied 30 times.
  - rule 'exactly_one: x and not(x)' was applied 6 times.
  - rule 'incompatible linear: add implication' was applied 126 times.
  - rule 'linear + amo: empty after processing' was applied 6 times.
  - rule 'linear + amo: extracted enforcement literal' was applied 56 times.
  - rule 'linear + amo: trivial linear constraint' was applied 1 time.
  - rule 'linear inclusion: redundant containing constraint' was applied 2 times.
  - rule 'linear inclusion: redundant included constraint' was applied 3 times.
  - rule 'linear inclusion: sparsify superset' was applied 1 time.
  - rule 'linear matrix: common vertical rectangle' was applied 4 times.
  - rule 'linear1: x in domain' was applied 26 times.
  - rule 'linear2: convert ax + by != cte to clauses' was applied 256 times.
  - rule 'linear2: convert implied ax + by == cte to clauses' was applied 122 times.
  - rule 'linear2: implied ax + by = cte has only one solution' was applied 8 times.
  - rule 'linear: always true' was applied 422 times.
  - rule 'linear: empty' was applied 1 time.
  - rule 'linear: extracted at most one (max)' was applied 1 time.
  - rule 'linear: fixed or dup variables' was applied 879 times.
  - rule 'linear: negative clause' was applied 1'293 times.
  - rule 'linear: negative reified and' was applied 78 times.
  - rule 'linear: never in domain' was applied 6 times.
  - rule 'linear: positive at most one' was applied 34 times.
  - rule 'linear: reduced variable domains' was applied 5 times.
  - rule 'linear: remapped using affine relations' was applied 22 times.
  - rule 'new_bool: integer encoding' was applied 12 times.
  - rule 'presolve: 78 unused variables removed.' was applied 1 time.
  - rule 'presolve: iteration' was applied 3 times.
  - rule 'probing: bool_or reduced to implication' was applied 32 times.
  - rule 'probing: simplified clauses' was applied 11 times.
  - rule 'setppc: bool_or in at_most_one' was applied 8 times.
  - rule 'setppc: removed dominated constraints' was applied 87 times.
  - rule 'variables: add encoding constraint' was applied 12 times.

Presolved satisfaction model '': (model_fingerprint: 0x611efc64dc0e6a66)
#Variables: 502 (436 primary variables)
  - 498 Booleans in [0,1]
  - 4 in [0,2]
#kAtMostOne: 45 (#literals: 184)
#kBoolAnd: 272 (#enforced: 272) (#literals: 723)
#kBoolAndClauses: 72 (#enforced: 72 #multi: 72) (#literals: 325)
#kBoolOr: 1'591 (#literals: 4'816)
#kExactlyOne: 53 (#literals: 203)
#kLinear1: 24 (#enforced: 24)
#kLinearN: 820 (#enforced: 124) (#terms: 5'790)
[Symmetry] Graph for symmetry has 4'133 nodes and 13'418 arcs.
[Symmetry] Symmetry computation done. time: 0.000899622 dtime: 0.00147099

Preloading model.
#Model   0.11s var:502/502 constraints:2877/2877

Starting search at 0.11s with 4 workers.
3 full problem subsolvers: [default_lp, max_lp, no_lp]
1 first solution subsolver: [fj]
2 interleaved subsolvers: [feasibility_pump, rins/rens]
2 helper subsolvers: [neighborhood_helper, synchronization_agent]

#Model 117.96s var:501/502 constraints:2875/2877
#Model 4058.13s var:500/502 constraints:2873/2877
#Model 5017.44s var:499/502 constraints:2855/2877
#Model 7159.23s var:498/502 constraints:2834/2877
#Model 7224.74s var:497/502 constraints:2816/2877
#Model 7226.15s var:496/502 constraints:2795/2877
#Model 7227.79s var:493/502 constraints:2792/2877
#Model 7228.48s var:492/502 constraints:2771/2877
#Model 7237.87s var:484/502 constraints:2683/2877
#Model 7247.66s var:471/502 constraints:2521/2877
#Model 7247.90s var:470/502 constraints:2504/2877
#Model 7248.12s var:468/502 constraints:2470/2877
#Model 7248.45s var:454/502 constraints:2324/2877 compo:453,1
#Model 7248.60s var:435/502 constraints:2031/2877 compo:434,1
#Model 7248.62s var:431/502 constraints:1981/2877 compo:430,1
#Done  7248.63s no_lp

Task timing                   n [     min,      max]      avg      dev     time         n [     min,      max]      avg      dev    dtime
        'default_lp':         1 [   2.01h,    2.01h]    2.01h   0.00ns    2.01h         2 [  2.15ms,    1.88h]   56.34m   56.34m    1.88h
  'feasibility_pump':     35900 [801.93us, 129.95ms]   1.78ms 787.69us    1.06m     35899 [292.35us, 109.34ms] 297.55us 575.53us   10.68s
                'fj':     26019 [103.85ms, 251.19ms] 137.98ms   9.85ms   59.83m     26019 [100.00ms, 100.14ms] 100.02ms  14.81us   43.37m
            'max_lp':         1 [   2.01h,    2.01h]    2.01h   0.00ns    2.01h         2 [ 92.02ms,    2.51h]    1.26h    1.26h    2.51h
             'no_lp':         1 [   2.01h,    2.01h]    2.01h   0.00ns    2.01h         2 [  1.89ms,    4.10h]    2.05h    2.05h    4.10h
         'rins/rens':     32189 [305.70us, 383.85ms] 111.53ms  40.95ms   59.83m     32167 [209.01us, 100.44ms]  67.77ms  37.55ms   36.33m

Search stats     Bools   Conflicts    Branches  Restarts  BacktrackToRoot   Backtrack     BoolPropag  IntegerPropag
  'default_lp':    498     635'910  12'382'292     3'092        1'840'780   2'927'777    133'445'379    155'451'923
      'max_lp':    498     413'942  16'807'051     1'607        2'589'526   3'641'895    184'230'792    220'073'805
       'no_lp':    498  47'993'748  60'927'068   158'542          913'245  48'456'600  4'166'420'898  1'042'763'710

SAT formula      Fixed  Equiv  Total  VarLeft  BinaryClauses  PermanentClauses  TemporaryClauses
  'default_lp':      4      3    498      491          2'778            59'937             4'554
      'max_lp':     10      3    498      485          2'618            53'380             4'218
       'no_lp':    138      6    498      354          3'076            45'457               747

SAT stats        ClassicMinim   LitRemoved  LitRemovedBinary     LitLearned  LitForgotten    Subsumed
  'default_lp':       563'609    7'687'178         3'849'847     19'722'085    13'571'021     228'776
      'max_lp':       364'289    5'588'845         2'287'542     10'800'725     7'191'335     127'373
       'no_lp':    43'598'877  811'530'397       227'280'334  1'145'507'700   889'911'118  14'325'524

Vivification       Clauses   Decisions  LitTrue  Subsumed  LitRemoved  DecisionReused  Conflicts
  'default_lp':  1'766'025  11'059'701        1    28'577     314'268         482'550      2'851
      'max_lp':  2'478'340  15'541'234        0    33'933     374'009         647'190      3'088
       'no_lp':    579'991   5'009'424        9    40'018     540'127         130'004      1'865

Clause deletion    at_true  l_and_not(l)  to_binary  sub_conflict  sub_extra  sub_decisions  sub_eager  sub_vivify  sub_probing  sub_inpro  blocked  eliminated   forgotten     promoted   conflicts
    'default_lp':    2'823             1          5       225'375      1'408          8'930      3'401      28'577       13'210     42'577        0           0     361'758    1'262'474     635'910
        'max_lp':    7'514             2          9       125'572        942          4'411      1'801      33'933       14'162     45'452        0           0     238'585      874'915     413'942
         'no_lp':  134'487             4        265    14'075'577     75'076        647'633    249'947      40'018       41'746    196'222        0           0  32'493'591  106'657'729  47'993'748

Lp stats         Component  Iterations  AddedCuts  OPTIMAL  DUAL_F.  DUAL_U.
  'default_lp':          1  85'080'262    212'382  924'214        1  538'603
      'max_lp':          1  41'866'211    239'225  127'739  367'913  109'112

Lp dimension        Final dimension of first component
  'default_lp':    247 rows, 343 columns, 2353 entries
      'max_lp':  1380 rows, 502 columns, 11793 entries

Lp debug         CutPropag  CutEqPropag   Adjust  Overflow        Bad  BadScaling
  'default_lp':          0           83  538'596         0  5'794'587           0
      'max_lp':          0           56  109'103         0  7'176'214           0

Lp pool          Constraints  Updates  Simplif  Merged  Shortened  Split  Strengthened        Cuts/Call
  'default_lp':       10'153   33'385        0       0         71      0             0  212'382/280'680
      'max_lp':       12'422   65'569    6'407       9      6'478    378         4'727  239'225/364'499

Lp Cut            default_lp   max_lp
          CG_FF:       4'423      153
           CG_K:       2'456       18
          CG_KL:       2'242       10
           CG_R:       4'782       91
          CG_RB:          41        9
         CG_RBP:          20        -
         Clique:           -      630
             IB:         189       20
       MIR_1_FF:       1'661    1'584
        MIR_1_K:         292       69
       MIR_1_KL:       1'169       85
        MIR_1_R:       1'468      753
       MIR_1_RB:           2        3
      MIR_1_RBP:           2        -
      MIR_1_RLT:           -   26'958
       MIR_2_FF:       1'536    2'080
        MIR_2_K:         384      404
       MIR_2_KL:         853      260
        MIR_2_R:       1'734    1'844
       MIR_2_RB:           2        1
      MIR_2_RBP:           2        2
       MIR_3_FF:         690      550
        MIR_3_K:         117       99
       MIR_3_KL:         256       51
        MIR_3_R:         708      660
       MIR_3_RB:           2        6
      MIR_3_RBP:           1        -
       MIR_4_FF:         224      187
        MIR_4_K:          50       30
       MIR_4_KL:         107       12
        MIR_4_R:         425      528
       MIR_4_RB:           6        4
      MIR_4_RBP:           3        -
       MIR_5_FF:          45       77
        MIR_5_K:          13       20
       MIR_5_KL:           8        3
        MIR_5_R:         216      496
       MIR_5_RB:           3        3
      MIR_5_RBP:           1        1
       MIR_6_FF:          26       36
        MIR_6_K:          14        6
       MIR_6_KL:           1        1
        MIR_6_R:         135      506
       MIR_6_RB:           2        -
      MIR_6_RBP:           3        1
   ZERO_HALF_FF:         930    1'139
    ZERO_HALF_K:         264       96
   ZERO_HALF_KL:         372       12
    ZERO_HALF_R:     184'485  199'494
   ZERO_HALF_RB:           9        3
  ZERO_HALF_RBP:           8      230

LNS stats       Improv/Calls  Closed  Difficulty  TimeLimit
  'rins/rens':   32170/32170     50%    8.00e-01       0.10

LS stats                                    Batches  Restarts/Perturbs    LinMoves    GenMoves  CompoundMoves   Bactracks  WeightUpdates  ScoreComputed
                             'fj_restart':    1'153                264  37'260'092           0              0           0     28'903'153     46'290'620
                    'fj_restart_compound':    1'538                308           0  16'439'001        783'202   7'827'286         48'156    271'350'171
                'fj_restart_compound_obj':    2'019                320           0  22'164'738        838'212  10'662'636         67'766    356'744'273
            'fj_restart_compound_perturb':    1'798                333           0  19'642'864        907'930   9'366'868         53'385    317'001'920
        'fj_restart_compound_perturb_obj':    1'318                291           0  14'345'984        735'865   6'804'507         37'127    232'378'030
                       'fj_restart_decay':      979                296  31'024'199           0              0           0      1'279'659     14'764'096
              'fj_restart_decay_compound':      970                301           0  11'245'484      1'859'812   4'692'140         12'354    172'794'932
          'fj_restart_decay_compound_obj':    3'218                306           0  40'799'700      6'687'817  17'055'150         40'180    579'840'247
      'fj_restart_decay_compound_perturb':    2'016                294           0  24'971'139      4'112'260  10'428'698         25'266    362'550'408
  'fj_restart_decay_compound_perturb_obj':    1'408                316           0  16'813'281      2'780'646   7'015'540         17'821    252'209'751
                   'fj_restart_decay_obj':    1'313                285  41'672'244           0              0           0      1'716'974     19'845'436
               'fj_restart_decay_perturb':    2'105                328  66'816'372           0              0           0      2'751'926     31'812'345
           'fj_restart_decay_perturb_obj':    2'229                305  70'780'270           0              0           0      2'912'786     33'704'333
                         'fj_restart_obj':    1'369                300  42'840'966           0              0           0     34'698'858     55'354'665
                     'fj_restart_perturb':    1'235                304  39'303'634           0              0           0     30'862'165     49'856'248
                 'fj_restart_perturb_obj':    1'351                320  42'719'234           0              0           0     33'960'347     54'808'535

Solution repositories    Added  Queried  Synchro
    'alternative_path':      0        0        0
      'best_solutions':      0        0        0
   'fj solution hints':  4'863        0    4'863
        'lp solutions':  4'717   32'189    4'715
                'pump':      0        0

Improving bounds shared    Num  Sym
            'default_lp':    1    0
                'max_lp':    4    0
                 'no_lp':   75    0

Clauses shared    #Exported  #Imported  #BinaryRead  #BinaryTotal
   'default_lp':      5'951    115'796          471         1'190
       'max_lp':      7'074    115'970          507         1'190
        'no_lp':    116'349     14'479        1'190         1'190

LRAT_status: NA
CpSolverResponse summary:
status: INFEASIBLE
objective: NA
best_bound: NA
integers: 355
booleans: 498
conflicts: 47993748
branches: 60927068
propagations: 4166420898
integer_propagations: 1042763710
restarts: 158542
lp_iterations: 0
walltime: 7248.66
usertime: 7248.66
deterministic_time: 35345.1
gap_integral: 0

{
  "board_size": 22,
  "parity_proved": 0,
  "target": 34,
  "child_id": 1972,
  "child_count": 2640,
  "partition": "unknown_pair_x_diag_plus_twos_x_diag_minus_twos",
  "build_seconds": 0.08458137512207031,
  "workers": 4,
  "requested_seed": 2026074172,
  "effective_seed": 2026074172,
  "main_diagonal_pair": [
    4,
    17
  ],
  "pair_index": 84,
  "diag_plus_twos": 16,
  "diag_minus_twos": 16,
  "pair_excess": 0,
  "residual_certificate_slack": 112,
  "analytic_minimum_line_defect": 24,
  "analytic_defect_details": {
    "row_costs": {
      "12": 6,
      "13": 3,
      "14": 0,
      "15": 0,
      "16": 0,
      "17": 0
    },
    "column_costs": {
      "12": 6,
      "13": 3,
      "14": 0,
      "15": 0,
      "16": 0,
      "17": 0
    },
    "plus_cost": 24,
    "minus_cost": 0,
    "row_column_minimum": 0
  },
  "maximal_line_constraints": 2455,
  "analytic_infeasible": false,
  "allowed_points": 242,
  "status": "INFEASIBLE",
  "proof_method": "cp_sat_all_lines_with_certificate_profile_cuts",
  "elapsed_seconds": 7248.6627061367035,
  "branches": 60927068,
  "conflicts": 47993748
}
